set VV := 0 1 2 3 4 5 6 7 8 9 10 11 12 13 14 15 16 17 18 19 20 21 22 23 24 25 26 27 28 29 30 31 32 33 34 35 36 37 38 39 40 41 42 43 44 ;
set VS := 0 1 2 3 4 5 6 7 8 9 10 11 12 13 14 15 16 17 18 19 20 21 22 23 24 25 26 27 28 29 30 31 32 33 34 35 36 37 38 39 40 41 42 43 44 45 46 47 48 49 50 51 52 53 54 55 56 57 58 59 60 61 62 63 64 65 66 67 68 69 70 71 72 73 74 75 76 77 78 79 80 81 82 83 84 85 86 87 88 89 90 91 92 93 ;
param cv := 
0 25
1 12
2 12
3 22
4 23
5 15
6 23
7 10
8 13
9 21
10 17
11 11
12 22
13 24
14 16
15 19
16 21
17 21
18 22
19 18
20 11
21 25
22 22
23 23
24 25
25 14
26 18
27 11
28 19
29 24
30 20
31 10
32 22
33 24
34 16
35 10
36 24
37 14
38 18
39 21
40 15
41 23
42 16
43 21
44 24
;
param cs := 
0 35
1 30
2 38
3 40
4 30
5 27
6 23
7 21
8 21
9 21
10 37
11 23
12 29
13 23
14 24
15 34
16 34
17 37
18 30
19 34
20 32
21 25
22 29
23 27
24 35
25 33
26 30
27 34
28 33
29 28
30 38
31 35
32 35
33 21
34 31
35 22
36 22
37 22
38 28
39 30
40 39
41 21
42 26
43 33
44 27
45 32
46 34
47 36
48 36
49 38
50 37
51 23
52 38
53 22
54 31
55 27
56 32
57 39
58 24
59 29
60 21
61 37
62 21
63 36
64 26
65 23
66 22
67 33
68 40
69 23
70 25
71 26
72 27
73 23
74 26
75 36
76 39
77 23
78 37
79 30
80 27
81 38
82 31
83 23
84 29
85 39
86 25
87 20
88 33
89 22
90 37
91 29
92 38
93 36
;
param bv:	 0 1 2 3 4 5 6 7 8 9 10 11 12 13 14 15 16 17 18 19 20 21 22 23 24 25 26 27 28 29 30 31 32 33 34 35 36 37 38 39 40 41 42 43 44 := 
		0 0 0 0 0 0 0 0 0 0 24 0 0 24 20 23 0 0 0 0 0 0 0 0 0 11 0 0 0 0 0 0 0 0 0 0 0 0 0 0 0 0 0 0 0 0 
		1 0 0 0 0 0 0 0 0 0 0 0 0 0 0 0 0 0 0 12 0 0 0 0 0 0 0 0 0 0 0 0 0 0 0 0 0 0 0 0 0 0 0 12 0 0 
		2 0 0 0 0 0 0 20 0 0 0 0 18 24 0 0 0 19 0 0 0 10 0 0 0 0 0 0 0 0 0 0 0 0 0 0 0 0 0 13 25 0 0 0 0 0 
		3 0 0 0 0 0 0 0 0 0 0 0 0 10 0 0 24 25 0 0 0 24 0 0 0 21 0 0 0 0 0 0 0 0 0 0 0 0 0 0 0 0 11 0 0 0 
		4 0 0 0 0 0 0 0 0 0 0 0 0 0 0 0 0 0 0 0 0 12 0 0 0 0 23 0 0 0 0 0 0 0 0 0 0 0 0 10 0 0 0 0 0 13 
		5 0 0 0 0 0 0 0 0 0 0 0 0 0 0 0 0 0 0 0 0 0 0 0 0 0 0 0 0 0 0 0 0 0 0 0 0 0 0 0 0 0 0 0 10 0 
		6 0 0 0 0 0 0 0 0 0 0 0 0 0 0 0 24 0 0 0 0 0 0 0 0 13 10 0 0 0 0 0 0 0 0 0 0 0 0 0 0 0 0 0 0 0 
		7 0 0 0 0 0 0 0 0 0 0 0 0 0 12 0 0 0 19 0 0 0 12 0 0 0 0 0 0 0 0 0 0 0 0 0 14 0 0 18 0 0 16 0 0 0 
		8 0 0 0 0 0 0 0 0 0 0 0 0 0 0 0 0 0 0 0 0 0 0 0 24 15 0 0 0 0 0 0 0 0 0 0 0 0 19 0 23 0 0 0 0 0 
		9 0 0 0 0 0 0 0 0 0 0 0 0 0 0 0 21 0 0 0 25 10 0 0 0 0 0 0 0 0 0 0 0 0 0 0 0 0 0 0 0 0 0 0 0 0 
		10 0 0 0 0 0 0 0 0 0 0 0 0 0 0 0 0 0 0 0 0 0 19 0 0 0 0 0 0 0 0 0 0 0 0 0 0 0 0 0 0 19 0 0 0 0 
		11 0 0 0 0 0 0 0 0 0 0 0 0 0 0 0 0 0 0 0 0 0 0 0 0 16 0 0 0 0 0 0 0 0 0 0 0 0 0 0 23 0 0 0 0 0 
		12 0 0 0 0 0 0 0 0 0 0 0 0 0 0 0 0 0 0 0 0 0 0 19 0 0 0 0 0 25 0 0 0 0 0 0 0 0 0 0 11 0 0 0 18 0 
		13 0 0 0 0 0 0 0 0 0 0 0 0 0 0 0 21 0 0 0 0 0 0 0 0 0 0 0 0 0 15 0 0 0 0 0 0 0 16 0 0 0 0 0 0 20 
		14 0 0 0 0 0 0 0 0 0 0 0 0 0 0 0 0 0 24 0 0 0 0 18 0 0 0 0 0 0 0 0 20 0 0 15 0 19 10 0 0 0 0 21 0 22 
		15 0 0 0 0 0 0 0 0 0 0 0 0 0 0 0 0 0 19 0 0 18 0 0 0 0 0 0 0 0 0 0 0 0 0 0 0 0 0 0 0 0 0 20 0 0 
		16 0 0 0 0 0 0 0 0 0 0 0 0 0 0 0 0 0 0 0 0 0 0 12 0 0 0 0 0 0 0 0 0 0 0 0 0 0 17 0 0 0 0 0 0 0 
		17 0 0 0 0 0 0 0 0 0 0 0 0 0 0 0 0 0 0 0 0 0 0 0 0 0 0 0 0 0 0 0 0 0 0 0 0 0 0 0 0 0 0 0 0 10 
		18 0 0 0 0 0 0 0 0 0 0 0 0 0 0 0 0 0 0 0 0 0 0 0 0 0 0 0 0 0 11 0 0 0 0 0 0 0 0 0 0 0 24 0 0 0 
		19 0 0 0 0 0 0 0 0 0 0 0 0 0 0 0 0 0 0 0 0 0 0 0 12 0 0 0 0 0 0 0 0 0 0 0 0 0 0 0 0 0 0 0 0 13 
		20 0 0 0 0 0 0 0 0 0 0 0 0 0 0 0 0 0 0 0 0 0 0 25 0 0 0 0 0 10 0 0 0 0 0 16 0 0 0 0 0 0 0 0 16 0 
		21 0 0 0 0 0 0 0 0 0 0 0 0 0 0 0 0 0 0 0 0 0 0 0 0 0 0 13 12 0 0 0 0 0 0 0 0 0 0 17 0 0 0 0 0 0 
		22 0 0 0 0 0 0 0 0 0 0 0 0 0 0 0 0 0 0 0 0 0 0 0 0 0 0 0 22 0 0 0 0 21 0 0 0 23 0 0 0 0 23 0 0 25 
		23 0 0 0 0 0 0 0 0 0 0 0 0 0 0 0 0 0 0 0 0 0 0 0 0 0 0 0 0 0 0 0 0 0 0 0 0 0 0 0 0 0 0 0 0 0 
		24 0 0 0 0 0 0 0 0 0 0 0 0 0 0 0 0 0 0 0 0 0 0 0 0 0 0 0 0 0 0 0 0 10 0 0 0 0 0 0 0 0 0 0 0 0 
		25 0 0 0 0 0 0 0 0 0 0 0 0 0 0 0 0 0 0 0 0 0 0 0 0 0 0 0 0 11 0 0 0 0 0 0 0 0 0 0 0 0 0 0 0 0 
		26 0 0 0 0 0 0 0 0 0 0 0 0 0 0 0 0 0 0 0 0 0 0 0 0 0 0 0 0 0 11 0 0 0 0 0 24 0 0 0 0 0 0 0 0 0 
		27 0 0 0 0 0 0 0 0 0 0 0 0 0 0 0 0 0 0 0 0 0 0 0 0 0 0 0 0 0 0 0 0 0 0 0 0 0 0 0 0 0 0 0 0 0 
		28 0 0 0 0 0 0 0 0 0 0 0 0 0 0 0 0 0 0 0 0 0 0 0 0 0 0 0 0 0 0 0 0 0 0 0 0 0 0 0 0 0 0 0 0 0 
		29 0 0 0 0 0 0 0 0 0 0 0 0 0 0 0 0 0 0 0 0 0 0 0 0 0 0 0 0 0 0 0 0 0 0 0 0 0 0 0 0 0 0 0 0 0 
		30 0 0 0 0 0 0 0 0 0 0 0 0 0 0 0 0 0 0 0 0 0 0 0 0 0 0 0 0 0 0 0 0 0 0 0 0 0 0 0 0 0 0 0 0 11 
		31 0 0 0 0 0 0 0 0 0 0 0 0 0 0 0 0 0 0 0 0 0 0 0 0 0 0 0 0 0 0 0 0 12 0 20 0 13 14 0 0 0 0 0 0 11 
		32 0 0 0 0 0 0 0 0 0 0 0 0 0 0 0 0 0 0 0 0 0 0 0 0 0 0 0 0 0 0 0 0 0 0 16 13 20 0 0 17 0 0 0 0 0 
		33 0 0 0 0 0 0 0 0 0 0 0 0 0 0 0 0 0 0 0 0 0 0 0 0 0 0 0 0 0 0 0 0 0 0 0 0 0 0 0 0 0 13 0 0 0 
		34 0 0 0 0 0 0 0 0 0 0 0 0 0 0 0 0 0 0 0 0 0 0 0 0 0 0 0 0 0 0 0 0 0 0 0 0 0 0 0 22 0 0 0 0 0 
		35 0 0 0 0 0 0 0 0 0 0 0 0 0 0 0 0 0 0 0 0 0 0 0 0 0 0 0 0 0 0 0 0 0 0 0 0 0 0 0 0 0 0 0 12 0 
		36 0 0 0 0 0 0 0 0 0 0 0 0 0 0 0 0 0 0 0 0 0 0 0 0 0 0 0 0 0 0 0 0 0 0 0 0 0 0 0 0 0 0 0 11 11 
		37 0 0 0 0 0 0 0 0 0 0 0 0 0 0 0 0 0 0 0 0 0 0 0 0 0 0 0 0 0 0 0 0 0 0 0 0 0 0 0 0 0 0 0 0 11 
		38 0 0 0 0 0 0 0 0 0 0 0 0 0 0 0 0 0 0 0 0 0 0 0 0 0 0 0 0 0 0 0 0 0 0 0 0 0 0 0 0 0 0 0 0 0 
		39 0 0 0 0 0 0 0 0 0 0 0 0 0 0 0 0 0 0 0 0 0 0 0 0 0 0 0 0 0 0 0 0 0 0 0 0 0 0 0 0 0 0 0 0 0 
		40 0 0 0 0 0 0 0 0 0 0 0 0 0 0 0 0 0 0 0 0 0 0 0 0 0 0 0 0 0 0 0 0 0 0 0 0 0 0 0 0 0 16 23 0 0 
		41 0 0 0 0 0 0 0 0 0 0 0 0 0 0 0 0 0 0 0 0 0 0 0 0 0 0 0 0 0 0 0 0 0 0 0 0 0 0 0 0 0 0 0 0 0 
		42 0 0 0 0 0 0 0 0 0 0 0 0 0 0 0 0 0 0 0 0 0 0 0 0 0 0 0 0 0 0 0 0 0 0 0 0 0 0 0 0 0 0 0 0 10 
		43 0 0 0 0 0 0 0 0 0 0 0 0 0 0 0 0 0 0 0 0 0 0 0 0 0 0 0 0 0 0 0 0 0 0 0 0 0 0 0 0 0 0 0 0 0 
		44 0 0 0 0 0 0 0 0 0 0 0 0 0 0 0 0 0 0 0 0 0 0 0 0 0 0 0 0 0 0 0 0 0 0 0 0 0 0 0 0 0 0 0 0 0 
;
param bs:	 0 1 2 3 4 5 6 7 8 9 10 11 12 13 14 15 16 17 18 19 20 21 22 23 24 25 26 27 28 29 30 31 32 33 34 35 36 37 38 39 40 41 42 43 44 45 46 47 48 49 50 51 52 53 54 55 56 57 58 59 60 61 62 63 64 65 66 67 68 69 70 71 72 73 74 75 76 77 78 79 80 81 82 83 84 85 86 87 88 89 90 91 92 93 := 
		0 0 0 28 0 0 0 0 0 0 0 20 0 0 28 0 0 0 0 0 0 0 22 0 0 0 0 0 0 21 0 0 0 0 0 0 0 0 22 0 33 0 0 0 0 25 0 0 0 0 0 0 0 0 0 0 0 22 0 0 0 40 0 0 0 0 0 38 0 26 0 0 0 25 0 0 31 0 0 0 0 0 0 0 0 0 0 0 0 0 0 0 0 0 0 
		1 0 0 0 25 24 0 0 36 31 0 0 0 0 0 0 0 0 0 0 0 0 0 0 0 0 32 0 0 0 20 0 34 0 23 0 0 0 0 0 0 0 0 0 0 0 0 0 0 0 0 0 0 21 0 23 0 40 0 0 0 0 0 0 0 0 0 0 0 0 0 0 0 22 0 0 25 30 0 0 0 34 20 0 0 0 0 0 0 0 0 0 0 0 0 
		2 28 0 0 0 33 0 0 0 0 0 0 0 0 0 26 23 0 0 0 0 0 0 36 30 25 0 0 0 0 0 0 0 21 0 0 0 0 0 0 0 0 0 0 0 22 0 0 0 30 0 27 0 0 0 0 0 0 0 0 0 0 0 0 0 0 0 0 0 24 0 0 39 0 0 0 0 0 0 0 23 0 0 0 0 0 0 0 0 0 0 0 22 0 0 
		3 0 25 0 0 0 0 0 0 20 36 0 0 0 0 0 0 0 25 30 0 0 0 0 32 0 0 0 0 0 0 0 0 22 0 0 0 0 0 26 0 0 24 31 31 0 0 0 25 0 0 0 26 0 38 0 0 0 34 0 0 0 22 0 0 24 0 0 0 0 0 0 0 0 0 0 38 0 27 0 0 30 0 0 0 0 0 0 27 0 0 0 28 0 0 
		4 0 24 33 0 0 0 0 0 0 0 20 0 0 0 0 0 0 0 0 0 27 26 39 0 0 0 0 0 0 0 0 0 0 0 0 0 0 0 0 0 0 0 0 0 38 0 0 0 30 0 0 0 0 0 0 27 0 0 0 0 0 0 0 0 0 26 23 31 26 0 0 0 0 0 0 0 0 0 0 0 0 24 0 0 0 0 0 0 0 25 0 0 0 27 
		5 0 0 0 0 0 0 0 0 22 0 0 0 0 0 0 35 0 0 0 0 31 0 0 0 0 0 0 0 0 32 0 0 0 29 0 27 0 0 22 0 0 38 0 0 0 0 0 0 0 0 0 0 0 0 0 0 22 32 0 0 40 0 0 39 0 0 0 0 0 0 0 0 0 0 0 0 25 22 0 0 0 0 0 0 20 0 38 0 0 39 36 0 0 30 
		6 0 0 0 0 0 0 0 0 0 0 0 0 0 0 0 0 0 0 0 0 0 0 0 0 0 0 0 0 0 0 0 0 0 0 0 0 0 0 0 0 0 37 0 0 0 0 0 0 0 0 0 0 0 0 0 28 0 0 0 0 36 0 0 0 0 29 26 0 0 0 0 0 0 0 30 0 20 0 0 0 36 0 0 0 0 0 0 0 0 34 32 0 0 0 
		7 0 36 0 0 0 0 0 0 0 0 0 0 0 21 0 0 0 0 0 0 0 0 0 0 0 0 0 0 0 0 0 0 0 0 0 0 0 37 0 0 0 0 40 0 0 0 0 0 0 0 0 0 0 0 0 0 0 0 0 0 0 0 0 0 0 0 0 0 0 0 0 0 0 0 0 0 0 0 0 0 0 0 0 0 0 0 33 0 0 0 23 0 0 0 
		8 0 31 0 20 0 22 0 0 0 0 0 0 0 0 0 0 0 0 0 0 0 0 0 33 0 0 0 0 29 0 0 0 0 0 0 0 0 0 38 0 0 27 0 0 0 21 0 0 0 0 0 0 0 0 0 0 0 35 0 0 0 0 0 0 38 0 0 0 0 0 0 0 0 0 0 0 0 0 0 0 0 24 0 0 0 0 0 0 0 0 0 0 0 0 
		9 0 0 0 36 0 0 0 0 0 0 0 0 0 0 0 0 0 29 0 0 23 0 0 0 0 0 0 0 0 39 0 0 0 0 0 0 0 0 34 0 0 0 0 0 0 0 0 0 0 0 0 0 0 0 26 0 25 0 29 0 0 0 0 0 0 0 0 0 0 24 0 0 0 0 0 0 0 0 34 0 0 22 0 0 0 0 0 40 0 0 0 0 0 0 
		10 20 0 0 0 20 0 0 0 0 0 0 0 21 0 0 23 0 0 0 0 0 28 0 0 0 38 38 0 0 0 0 0 0 0 0 0 0 0 0 31 0 0 0 0 24 0 0 0 0 0 0 25 0 0 0 0 0 0 0 0 0 0 0 27 0 0 0 0 38 0 0 0 0 0 0 30 0 24 0 0 0 0 0 0 0 0 0 0 0 20 0 0 0 0 
		11 0 0 0 0 0 0 0 0 0 0 0 0 0 38 0 0 0 0 0 40 0 0 37 0 0 0 0 0 0 0 0 0 0 0 0 0 0 0 0 0 0 0 0 0 0 0 0 0 25 0 0 0 0 0 0 26 0 0 0 0 0 0 0 0 0 0 0 0 0 0 27 0 22 0 0 0 0 20 0 40 0 0 0 0 0 0 0 0 0 0 0 0 0 0 
		12 0 0 0 0 0 0 0 0 0 0 21 0 0 0 0 0 0 26 0 37 0 0 0 0 0 0 0 36 0 20 0 0 0 27 0 0 36 0 0 0 0 0 0 0 0 0 34 0 0 39 28 0 0 0 0 36 0 0 0 0 0 0 0 0 0 0 0 0 0 0 0 27 0 0 0 0 0 0 0 0 0 0 0 0 0 0 0 40 0 0 0 0 0 0 
		13 28 0 0 0 0 0 0 21 0 0 0 38 0 0 0 20 0 0 0 22 0 0 0 35 34 0 39 0 0 0 0 0 0 21 0 0 0 0 37 0 0 0 0 0 35 0 38 0 0 0 0 38 0 0 25 0 21 0 0 0 0 0 0 0 0 0 0 0 0 25 0 37 0 0 0 21 0 0 0 0 0 0 0 0 0 0 0 0 0 0 0 0 33 0 
		14 0 0 26 0 0 0 0 0 0 0 0 0 0 0 0 0 0 0 0 0 0 0 22 0 37 0 0 0 0 0 31 0 0 0 0 0 0 0 0 0 0 0 0 0 0 21 0 0 38 0 0 0 0 23 0 0 0 0 0 0 0 0 0 0 0 0 0 0 0 21 0 0 0 0 0 0 0 0 0 0 0 0 22 0 0 0 0 0 0 0 0 29 0 0 
		15 0 0 23 0 0 35 0 0 0 0 23 0 0 20 0 0 0 0 0 0 27 0 0 0 0 0 0 0 0 0 0 0 0 0 0 0 0 0 0 0 0 0 0 0 0 0 0 0 0 0 20 0 0 0 22 0 0 0 0 32 0 0 0 0 0 0 0 0 0 0 0 0 0 0 28 0 27 0 0 0 0 38 0 0 0 0 0 0 35 0 0 0 37 0 
		16 0 0 0 0 0 0 0 0 0 0 0 0 0 0 0 0 0 0 0 0 0 0 0 0 0 0 30 0 0 0 0 0 0 0 0 0 0 0 0 0 0 0 0 0 0 0 0 0 0 0 0 0 0 0 0 0 0 0 0 0 0 0 22 0 0 0 0 0 0 0 0 0 0 0 0 0 0 0 0 0 24 27 0 0 0 0 0 0 37 33 0 0 0 0 
		17 0 0 0 25 0 0 0 0 0 29 0 0 26 0 0 0 0 0 0 30 0 0 0 33 0 0 0 0 0 0 33 0 0 0 0 0 0 0 0 0 0 0 0 0 0 0 36 0 0 0 0 0 0 0 0 31 0 24 0 0 0 0 37 0 35 0 0 0 34 0 0 0 0 0 0 0 0 0 0 0 0 0 0 0 0 0 0 0 35 0 0 33 0 0 
		18 0 0 0 30 0 0 0 0 0 0 0 0 0 0 0 0 0 0 0 0 0 0 0 0 0 0 0 0 0 0 0 0 0 0 0 0 0 0 0 0 0 0 0 0 0 0 37 0 30 0 0 34 0 0 38 37 0 0 0 0 0 0 29 0 0 0 0 0 34 0 0 20 21 0 0 0 0 33 0 0 0 0 37 0 0 0 0 0 0 0 0 0 30 0 
		19 0 0 0 0 0 0 0 0 0 0 0 40 37 22 0 0 0 30 0 0 0 0 0 0 0 0 35 0 0 0 0 0 0 0 0 0 0 0 0 0 0 40 0 0 0 0 0 0 0 0 26 27 0 26 0 29 0 0 0 0 0 35 37 39 0 0 0 0 0 34 0 0 0 0 0 32 27 0 0 0 30 0 0 0 0 0 0 0 0 29 0 0 0 0 
		20 0 0 0 0 27 31 0 0 0 23 0 0 0 0 0 27 0 0 0 0 0 0 0 0 0 0 22 20 0 0 0 0 0 0 0 0 0 0 0 23 0 33 0 0 0 0 31 0 0 0 0 0 0 33 30 0 0 0 28 0 0 0 0 0 26 0 0 0 0 0 0 0 0 0 0 0 0 0 0 0 0 0 38 0 0 0 0 0 0 0 0 0 37 0 
		21 22 0 0 0 26 0 0 0 0 0 28 0 0 0 0 0 0 0 0 0 0 0 0 0 20 0 0 28 0 0 0 0 0 40 0 0 0 0 0 0 0 0 0 0 0 0 0 0 0 0 0 0 0 0 0 0 0 0 0 0 0 0 0 0 0 0 0 0 32 0 0 0 0 0 0 0 0 0 0 0 0 0 0 0 0 0 34 0 0 0 0 0 40 0 
		22 0 0 36 0 39 0 0 0 0 0 0 37 0 0 22 0 0 0 0 0 0 0 0 0 39 0 0 22 0 0 0 0 0 0 0 0 0 30 0 0 0 0 0 0 0 0 22 0 0 0 0 0 0 0 0 0 0 0 0 0 0 0 0 0 0 0 0 0 0 0 0 0 0 0 0 0 0 0 0 22 0 0 0 0 0 0 0 0 0 0 0 0 0 0 
		23 0 0 30 32 0 0 0 0 33 0 0 0 0 35 0 0 0 33 0 0 0 0 0 0 0 0 0 0 0 0 0 39 26 0 30 0 0 0 0 0 0 40 0 0 0 35 0 39 0 0 0 0 0 0 0 24 0 0 0 0 30 0 35 0 0 21 0 0 0 0 0 0 0 0 0 0 32 0 0 0 0 0 30 0 0 25 0 0 0 0 0 0 0 0 
		24 0 0 25 0 0 0 0 0 0 0 0 0 0 34 37 0 0 0 0 0 0 20 39 0 0 0 0 0 0 0 0 25 0 0 0 0 0 0 36 0 0 0 0 0 0 0 0 0 0 0 0 0 0 0 0 0 0 0 0 0 22 0 22 0 0 0 21 0 0 0 0 29 0 0 0 0 0 0 0 32 0 0 0 0 0 0 0 22 0 32 0 0 0 0 
		25 0 32 0 0 0 0 0 0 0 0 38 0 0 0 0 0 0 0 0 0 0 0 0 0 0 0 0 0 0 0 0 0 0 39 0 0 0 0 0 0 0 0 0 0 0 0 26 0 0 0 0 40 0 0 0 0 29 0 40 0 0 0 0 0 0 0 0 0 0 0 0 23 0 33 0 0 0 0 0 0 0 0 0 0 0 0 0 0 40 0 0 22 0 0 
		26 0 0 0 0 0 0 0 0 0 0 38 0 0 39 0 0 30 0 0 35 22 0 0 0 0 0 0 30 0 0 0 24 0 0 0 0 0 0 0 0 0 0 0 0 0 37 0 0 0 0 0 0 0 0 0 0 0 0 0 0 0 0 0 0 0 0 0 0 30 0 0 0 0 0 0 0 20 0 0 0 0 26 0 0 0 0 0 0 0 30 32 0 0 0 
		27 0 0 0 0 0 0 0 0 0 0 0 0 36 0 0 0 0 0 0 0 20 28 22 0 0 0 30 0 23 0 0 0 0 0 0 0 0 33 0 0 0 25 0 0 0 0 0 0 0 0 0 0 0 0 0 0 0 39 0 0 0 0 21 0 0 0 24 0 0 0 0 0 0 0 0 0 0 0 0 0 0 0 0 0 0 30 0 0 0 0 0 0 0 0 
		28 21 0 0 0 0 0 0 0 29 0 0 0 0 0 0 0 0 0 0 0 0 0 0 0 0 0 0 23 0 0 0 0 0 25 0 0 0 0 0 22 0 0 0 0 0 0 0 0 0 0 0 0 0 22 39 0 0 0 0 26 0 0 0 0 0 0 0 0 0 0 0 0 0 0 0 0 0 0 0 0 0 0 0 0 0 0 0 0 0 0 0 0 36 0 
		29 0 20 0 0 0 32 0 0 0 39 0 0 20 0 0 0 0 0 0 0 0 0 0 0 0 0 0 0 0 0 24 0 22 0 0 0 0 0 0 0 30 0 0 0 0 0 20 0 0 0 35 0 36 0 34 23 0 20 0 0 0 0 0 0 0 0 0 0 0 0 0 0 0 0 0 0 0 0 0 39 39 0 31 0 0 0 31 39 0 0 0 0 24 0 
		30 0 0 0 0 0 0 0 0 0 0 0 0 0 0 31 0 0 33 0 0 0 0 0 0 0 0 0 0 0 24 0 0 0 0 0 0 35 0 0 0 0 0 0 0 0 0 0 0 0 0 0 0 0 0 0 0 0 0 0 0 0 0 0 0 25 0 0 0 0 0 0 0 26 0 31 0 0 0 0 0 0 0 33 0 29 0 0 0 0 0 0 0 0 39 
		31 0 34 0 0 0 0 0 0 0 0 0 0 0 0 0 0 0 0 0 0 0 0 0 39 25 0 24 0 0 0 0 0 0 0 26 0 34 0 0 0 0 0 0 0 0 0 0 0 0 0 0 0 0 0 0 0 0 0 0 0 0 0 0 0 0 0 0 0 0 0 0 0 0 0 0 32 0 0 0 40 0 0 0 0 0 0 0 0 0 0 0 0 21 0 
		32 0 0 21 22 0 0 0 0 0 0 0 0 0 0 0 0 0 0 0 0 0 0 0 26 0 0 0 0 0 22 0 0 0 0 0 0 0 0 20 0 0 38 24 0 0 25 0 0 0 22 0 0 37 0 0 0 0 0 0 0 0 20 0 0 0 0 0 0 0 0 0 0 0 0 0 0 0 0 0 0 0 0 0 39 0 0 0 0 0 0 0 36 0 35 
		33 0 23 0 0 0 29 0 0 0 0 0 0 27 21 0 0 0 0 0 0 0 40 0 0 0 39 0 0 25 0 0 0 0 0 0 0 0 0 0 0 32 0 0 21 0 0 0 0 0 0 0 20 0 35 0 0 0 0 0 0 0 0 0 0 0 0 0 0 24 33 35 0 0 0 0 28 29 0 0 0 20 0 0 0 0 0 0 0 0 0 0 0 0 0 
		34 0 0 0 0 0 0 0 0 0 0 0 0 0 0 0 0 0 0 0 0 0 0 0 30 0 0 0 0 0 0 0 26 0 0 0 0 22 0 0 0 0 0 0 0 0 0 0 0 33 0 0 0 0 0 29 0 0 0 0 0 0 0 0 0 0 0 0 0 0 0 0 0 0 0 0 0 0 0 0 0 0 0 0 0 0 0 0 0 0 0 0 0 0 0 
		35 0 0 0 0 0 27 0 0 0 0 0 0 0 0 0 0 0 0 0 0 0 0 0 0 0 0 0 0 0 0 0 0 0 0 0 0 0 38 0 0 0 0 0 0 0 0 0 0 0 0 0 35 0 0 0 0 0 0 0 0 0 0 0 21 0 0 37 38 0 0 0 0 0 0 0 37 0 0 0 0 0 32 0 0 0 0 0 0 0 0 0 0 0 0 
		36 0 0 0 0 0 0 0 0 0 0 0 0 36 0 0 0 0 0 0 0 0 0 0 0 0 0 0 0 0 0 35 34 0 0 22 0 0 0 0 0 0 0 0 0 0 0 0 0 0 0 0 0 0 0 0 30 24 21 0 0 0 0 0 0 0 0 0 0 0 0 0 0 40 0 0 0 0 0 0 20 0 0 34 0 0 0 0 0 0 0 0 0 0 0 
		37 22 0 0 0 0 0 0 37 0 0 0 0 0 0 0 0 0 0 0 0 0 0 30 0 0 0 0 33 0 0 0 0 0 0 0 38 0 0 0 0 0 0 0 0 0 0 0 0 0 0 0 24 0 0 0 0 0 0 0 0 0 0 0 0 0 0 0 0 0 0 0 0 0 0 0 0 0 0 0 0 0 0 0 0 0 33 0 0 0 35 0 0 0 0 
		38 0 0 0 26 0 22 0 0 38 34 0 0 0 37 0 0 0 0 0 0 0 0 0 0 36 0 0 0 0 0 0 0 20 0 0 0 0 0 0 0 34 0 0 0 0 0 0 0 35 31 0 0 0 0 0 0 0 0 29 0 0 0 0 0 40 0 0 0 0 39 0 24 0 0 0 0 29 36 32 0 0 0 0 0 0 0 31 0 0 0 0 0 33 35 
		39 33 0 0 0 0 0 0 0 0 0 31 0 0 0 0 0 0 0 0 0 23 0 0 0 0 0 0 0 22 0 0 0 0 0 0 0 0 0 0 0 0 0 0 0 0 0 26 0 0 0 0 35 0 35 0 0 0 0 0 34 0 0 0 39 0 33 0 0 26 0 0 0 0 0 0 0 0 0 36 0 0 0 0 0 0 0 0 0 0 22 0 0 0 0 
		40 0 0 0 0 0 0 0 0 0 0 0 0 0 0 0 0 0 0 0 0 0 0 0 0 0 0 0 0 0 30 0 0 0 32 0 0 0 0 34 0 0 0 0 0 0 0 0 0 0 21 0 0 24 40 0 0 0 0 35 0 0 0 0 0 0 0 0 0 0 0 0 0 0 0 0 32 0 36 35 0 0 37 0 0 0 0 0 20 0 0 0 26 0 20 
		41 0 0 0 24 0 38 37 0 27 0 0 0 0 0 0 0 0 0 0 40 33 0 0 40 0 0 0 25 0 0 0 0 38 0 0 0 0 0 0 0 0 0 0 0 0 0 0 0 0 0 0 0 0 0 0 0 0 0 0 0 0 32 0 0 0 0 0 0 0 22 0 0 0 0 0 0 0 0 0 0 22 0 0 0 0 0 0 0 0 0 0 0 0 0 
		42 0 0 0 31 0 0 0 40 0 0 0 0 0 0 0 0 0 0 0 0 0 0 0 0 0 0 0 0 0 0 0 0 24 0 0 0 0 0 0 0 0 0 0 0 0 0 0 0 0 0 0 0 0 23 0 0 20 0 0 0 0 0 0 0 0 28 0 40 0 0 0 0 0 28 0 0 0 0 0 0 26 25 0 31 0 0 0 0 0 26 0 0 34 40 
		43 0 0 0 31 0 0 0 0 0 0 0 0 0 0 0 0 0 0 0 0 0 0 0 0 0 0 0 0 0 0 0 0 0 21 0 0 0 0 0 0 0 0 0 0 0 40 0 0 0 0 0 22 0 0 0 0 28 0 0 0 0 0 0 0 0 0 0 0 0 0 0 0 0 0 0 0 0 0 0 0 26 0 0 30 0 0 0 32 0 0 36 0 0 0 
		44 25 0 22 0 38 0 0 0 0 0 24 0 0 35 0 0 0 0 0 0 0 0 0 0 0 0 0 0 0 0 0 0 0 0 0 0 0 0 0 0 0 0 0 0 0 0 0 0 0 0 0 0 0 0 35 0 0 0 0 20 0 0 37 0 0 0 23 0 0 0 0 0 0 28 0 39 0 0 0 0 0 35 0 0 33 0 0 34 0 0 34 0 0 0 
		45 0 0 0 0 0 0 0 0 21 0 0 0 0 0 21 0 0 0 0 0 0 0 0 35 0 0 37 0 0 0 0 0 25 0 0 0 0 0 0 0 0 0 0 40 0 0 0 0 0 0 0 0 0 0 0 39 40 0 0 0 0 0 0 0 0 0 0 0 0 35 0 0 0 0 0 0 0 26 0 0 0 0 0 0 31 0 0 0 0 40 0 0 28 0 
		46 0 0 0 0 0 0 0 0 0 0 0 0 34 38 0 0 0 36 37 0 31 0 22 0 0 26 0 0 0 20 0 0 0 0 0 0 0 0 0 26 0 0 0 0 0 0 0 0 0 0 0 0 36 0 0 22 0 24 31 0 0 0 24 0 0 0 0 0 0 0 0 0 0 0 0 0 0 0 0 29 26 33 38 0 0 0 0 26 0 0 0 0 0 38 
		47 0 0 0 25 0 0 0 0 0 0 0 0 0 0 0 0 0 0 0 0 0 0 0 39 0 0 0 0 0 0 0 0 0 0 0 0 0 0 0 0 0 0 0 0 0 0 0 0 0 0 0 0 0 0 31 0 0 0 0 0 0 0 0 0 0 0 0 0 0 31 0 0 0 0 0 0 0 0 0 0 0 0 0 24 0 0 0 0 0 0 0 0 30 0 
		48 0 0 30 0 30 0 0 0 0 0 0 25 0 0 38 0 0 0 30 0 0 0 0 0 0 0 0 0 0 0 0 0 0 0 33 0 0 0 35 0 0 0 0 0 0 0 0 0 0 35 0 0 38 0 0 0 0 0 0 0 0 0 0 0 0 0 0 0 0 0 0 0 0 0 0 0 0 0 0 0 0 0 0 0 0 0 0 0 0 0 0 0 37 0 
		49 0 0 0 0 0 0 0 0 0 0 0 0 39 0 0 0 0 0 0 0 0 0 0 0 0 0 0 0 0 0 0 0 22 0 0 0 0 0 31 0 21 0 0 0 0 0 0 0 35 0 0 0 0 0 0 0 0 0 0 0 0 0 0 0 0 0 0 0 0 0 37 0 0 0 0 0 0 0 0 0 0 0 0 0 24 0 0 0 0 0 0 0 0 29 
		50 0 0 27 0 0 0 0 0 0 0 0 0 28 0 0 20 0 0 0 26 0 0 0 0 0 0 0 0 0 35 0 0 0 0 0 0 0 0 0 0 0 0 0 0 0 0 0 0 0 0 0 0 0 0 0 0 0 0 0 0 0 0 33 0 0 0 0 21 0 0 0 0 0 0 39 37 0 35 0 0 31 0 0 0 0 0 0 32 0 0 0 0 0 0 
		51 0 0 0 26 0 0 0 0 0 0 25 0 0 38 0 0 0 0 34 27 0 0 0 0 0 40 0 0 0 0 0 0 0 20 0 35 0 24 0 35 0 0 0 22 0 0 0 0 0 0 0 0 0 0 0 0 0 0 0 0 0 0 26 32 0 0 0 0 0 0 0 0 0 0 0 0 0 0 0 0 0 0 0 0 0 0 0 0 0 0 0 0 0 0 
		52 0 21 0 0 0 0 0 0 0 0 0 0 0 0 0 0 0 0 0 0 0 0 0 0 0 0 0 0 0 36 0 0 37 0 0 0 0 0 0 0 24 0 0 0 0 0 36 0 38 0 0 0 0 0 0 0 0 0 0 0 0 0 22 0 0 0 0 0 0 0 0 0 0 0 0 0 0 0 0 0 0 35 29 0 23 0 33 0 0 0 0 0 0 0 
		53 0 0 0 38 0 0 0 0 0 0 0 0 0 0 23 0 0 0 0 26 33 0 0 0 0 0 0 0 22 0 0 0 0 35 0 0 0 0 0 35 40 0 23 0 0 0 0 0 0 0 0 0 0 0 0 0 0 0 0 0 0 0 26 0 0 0 39 0 32 0 0 0 0 0 0 0 22 0 30 0 35 31 0 30 0 0 22 0 0 0 0 0 0 0 
		54 0 23 0 0 0 0 0 0 0 26 0 0 0 25 0 22 0 0 38 0 30 0 0 0 0 0 0 0 39 34 0 0 0 0 29 0 0 0 0 0 0 0 0 0 35 0 0 31 0 0 0 0 0 0 0 0 0 21 0 0 22 0 0 0 0 0 0 28 0 0 0 0 0 0 0 0 0 0 0 0 0 0 0 0 0 36 0 0 22 0 28 0 29 0 
		55 0 0 0 0 27 0 28 0 0 0 0 26 36 0 0 0 0 31 37 29 0 0 0 24 0 0 0 0 0 23 0 0 0 0 0 0 30 0 0 0 0 0 0 0 0 39 22 0 0 0 0 0 0 0 0 0 0 0 0 0 0 0 0 0 0 0 0 0 0 0 0 0 0 0 0 0 0 0 0 0 0 0 0 0 0 0 0 29 33 0 0 0 30 0 
		56 22 40 0 0 0 22 0 0 0 25 0 0 0 21 0 0 0 0 0 0 0 0 0 0 0 29 0 0 0 0 0 0 0 0 0 0 24 0 0 0 0 0 20 28 0 40 0 0 0 0 0 0 0 0 0 0 0 0 0 0 0 0 0 0 0 0 0 0 23 0 0 0 0 0 32 0 0 0 0 0 33 0 0 25 0 0 30 0 0 0 0 0 0 0 
		57 0 0 0 34 0 32 0 0 35 0 0 0 0 0 0 0 0 24 0 0 0 0 0 0 0 0 0 39 0 20 0 0 0 0 0 0 21 0 0 0 0 0 0 0 0 0 24 0 0 0 0 0 0 0 21 0 0 0 0 0 0 26 40 0 0 0 0 0 0 22 0 0 0 0 0 24 0 0 24 0 0 0 0 0 0 0 0 29 0 0 0 0 0 0 
		58 0 0 0 0 0 0 0 0 0 29 0 0 0 0 0 0 0 0 0 0 28 0 0 0 0 40 0 0 0 0 0 0 0 0 0 0 0 0 29 0 35 0 0 0 0 0 31 0 0 0 0 0 0 0 0 0 0 0 0 0 0 37 0 0 0 0 0 0 0 24 0 0 0 0 0 0 0 0 0 0 0 0 0 0 0 0 0 0 0 0 0 0 0 0 
		59 0 0 0 0 0 0 0 0 0 0 0 0 0 0 0 32 0 0 0 0 0 0 0 0 0 0 0 0 26 0 0 0 0 0 0 0 0 0 0 34 0 0 0 0 20 0 0 0 0 0 0 0 0 0 0 0 0 0 0 0 0 0 0 0 0 0 0 37 0 0 0 0 0 0 33 0 0 0 0 0 0 0 0 0 0 23 0 0 0 0 0 0 0 0 
		60 40 0 0 0 0 40 36 0 0 0 0 0 0 0 0 0 0 0 0 0 0 0 0 30 22 0 0 0 0 0 0 0 0 0 0 0 0 0 0 0 0 0 0 0 0 0 0 0 0 0 0 0 0 0 22 0 0 0 0 0 0 0 0 0 0 0 0 0 0 0 0 24 0 0 0 0 20 0 0 0 30 0 0 35 0 0 0 0 32 28 0 0 0 0 
		61 0 0 0 22 0 0 0 0 0 0 0 0 0 0 0 0 0 0 0 35 0 0 0 0 0 0 0 0 0 0 0 0 20 0 0 0 0 0 0 0 0 32 0 0 0 0 0 0 0 0 0 0 0 0 0 0 0 26 37 0 0 0 0 29 0 24 0 0 35 20 0 23 0 0 0 0 0 0 0 0 26 0 0 0 0 0 0 0 0 0 35 0 0 0 
		62 0 0 0 0 0 0 0 0 0 0 0 0 0 0 0 0 22 37 29 37 0 0 0 35 22 0 0 21 0 0 0 0 0 0 0 0 0 0 0 0 0 0 0 0 37 0 24 0 0 0 33 26 22 26 0 0 0 40 0 0 0 0 0 0 0 40 23 0 0 0 0 0 0 0 28 0 0 0 0 0 0 0 0 0 0 0 0 0 0 38 0 0 25 0 
		63 0 0 0 0 0 39 0 0 0 0 27 0 0 0 0 0 0 0 0 39 0 0 0 0 0 0 0 0 0 0 0 0 0 0 0 21 0 0 0 39 0 0 0 0 0 0 0 0 0 0 0 32 0 0 0 0 0 0 0 0 0 29 0 0 0 0 0 0 0 0 0 0 0 0 0 0 0 0 0 0 0 0 0 0 0 0 0 0 0 0 39 0 0 0 
		64 0 0 0 24 0 0 0 0 38 0 0 0 0 0 0 0 0 35 0 0 26 0 0 0 0 0 0 0 0 0 25 0 0 0 0 0 0 0 40 0 0 0 0 0 0 0 0 0 0 0 0 0 0 0 0 0 0 0 0 0 0 0 0 0 0 31 0 0 0 24 0 0 0 0 0 0 0 0 32 0 0 0 0 0 0 0 0 0 0 0 40 0 0 0 
		65 0 0 0 0 26 0 29 0 0 0 0 0 0 0 0 0 0 0 0 0 0 0 0 21 0 0 0 0 0 0 0 0 0 0 0 0 0 0 0 33 0 0 28 0 0 0 0 0 0 0 0 0 0 0 0 0 0 0 0 0 0 24 40 0 31 0 0 0 0 0 0 0 0 0 0 33 0 0 0 0 0 31 0 0 0 36 0 0 0 27 23 0 0 0 
		66 38 0 0 0 23 0 26 0 0 0 0 0 0 0 0 0 0 0 0 0 0 0 0 0 21 0 0 24 0 0 0 0 0 0 0 37 0 0 0 0 0 0 0 0 23 0 0 0 0 0 0 0 0 39 0 0 0 0 0 0 0 0 23 0 0 0 0 37 0 0 0 0 0 25 0 0 0 0 0 0 0 35 0 0 0 0 0 0 0 0 0 0 0 0 
		67 0 0 0 0 31 0 0 0 0 0 0 0 0 0 0 0 0 0 0 0 0 0 0 0 0 0 0 0 0 0 0 0 0 0 0 38 0 0 0 0 0 0 40 0 0 0 0 0 0 0 21 0 0 0 28 0 0 0 0 37 0 0 0 0 0 0 37 0 0 0 0 31 0 0 0 0 0 0 0 0 0 0 0 0 0 0 0 0 0 0 0 0 0 0 
		68 26 0 24 0 26 0 0 0 0 0 38 0 0 0 0 0 0 34 34 0 0 32 0 0 0 0 30 0 0 0 0 0 0 24 0 0 0 0 0 26 0 0 0 0 0 0 0 0 0 0 0 0 0 32 0 0 23 0 0 0 0 35 0 0 0 0 0 0 0 0 0 0 0 34 0 36 0 0 0 0 0 0 0 0 0 0 23 0 0 0 0 0 21 0 
		69 0 0 0 0 0 0 0 0 0 24 0 0 0 25 21 0 0 0 0 34 0 0 0 0 0 0 0 0 0 0 0 0 0 33 0 0 0 0 39 0 0 22 0 0 0 35 0 31 0 0 0 0 0 0 0 0 0 22 24 0 0 20 0 0 24 0 0 0 0 0 0 0 29 0 0 0 0 0 0 0 0 0 0 0 0 0 0 0 0 0 0 0 0 20 
		70 0 0 0 0 0 0 0 0 0 0 0 27 0 0 0 0 0 0 0 0 0 0 0 0 0 0 0 0 0 0 0 0 0 35 0 0 0 0 0 0 0 0 0 0 0 0 0 0 0 37 0 0 0 0 0 0 0 0 0 0 0 0 0 0 0 0 0 0 0 0 0 0 0 0 0 0 0 0 0 40 0 0 0 0 0 0 0 0 0 38 0 0 0 0 
		71 0 0 39 0 0 0 0 0 0 0 0 0 27 37 0 0 0 0 20 0 0 0 0 0 29 23 0 0 0 0 0 0 0 0 0 0 0 0 24 0 0 0 0 0 0 0 0 0 0 0 0 0 0 0 0 0 0 0 0 0 24 23 0 0 0 0 0 31 0 0 0 0 26 0 0 0 0 0 0 0 0 0 0 0 0 0 0 23 0 35 0 0 0 0 
		72 25 22 0 0 0 0 0 0 0 0 0 22 0 0 0 0 0 0 21 0 0 0 0 0 0 0 0 0 0 0 26 0 0 0 0 0 40 0 0 0 0 0 0 0 0 0 0 0 0 0 0 0 0 0 0 0 0 0 0 0 0 0 0 0 0 0 0 0 0 29 0 26 0 0 0 0 0 0 29 0 40 0 31 0 0 0 0 0 38 27 0 0 0 0 
		73 0 0 0 0 0 0 0 0 0 0 0 0 0 0 0 0 0 0 0 0 0 0 0 0 0 33 0 0 0 0 0 0 0 0 0 0 0 0 0 0 0 0 28 0 28 0 0 0 0 0 0 0 0 0 0 0 0 0 0 0 0 0 0 0 0 0 25 0 34 0 0 0 0 0 0 0 0 0 0 0 0 0 0 0 0 0 0 0 0 0 0 34 0 0 
		74 0 0 0 0 0 0 30 0 0 0 0 0 0 0 0 28 0 0 0 0 0 0 0 0 0 0 0 0 0 0 31 0 0 0 0 0 0 0 0 0 0 0 0 0 0 0 0 0 0 0 39 0 0 0 0 0 32 0 0 33 0 0 28 0 0 0 0 0 0 0 0 0 0 0 0 0 0 0 0 0 0 0 0 0 0 0 0 0 0 0 0 0 0 0 
		75 31 25 0 38 0 0 0 0 0 0 30 0 0 21 0 0 0 0 0 32 0 0 0 0 0 0 0 0 0 0 0 32 0 28 0 37 0 0 0 0 32 0 0 0 39 0 0 0 0 0 37 0 0 0 0 0 0 24 0 0 0 0 0 0 0 33 0 0 36 0 0 0 0 0 0 0 22 0 0 0 0 0 0 0 0 40 0 0 0 0 0 0 0 27 
		76 0 30 0 0 0 25 20 0 0 0 0 0 0 0 0 27 0 0 0 27 0 0 0 32 0 0 20 0 0 0 0 0 0 29 0 0 0 0 29 0 0 0 0 0 0 0 0 0 0 0 0 0 0 22 0 0 0 0 0 0 20 0 0 0 0 0 0 0 0 0 0 0 0 0 0 22 0 0 0 0 0 36 0 0 0 0 0 0 0 32 0 0 0 0 
		77 0 0 0 27 0 22 0 0 0 0 24 20 0 0 0 0 0 0 33 0 0 0 0 0 0 0 0 0 0 0 0 0 0 0 0 0 0 0 36 0 36 0 0 0 0 26 0 0 0 0 35 0 0 0 0 0 0 0 0 0 0 0 0 0 0 0 0 0 0 0 0 0 0 0 0 0 0 0 0 22 0 0 0 0 0 0 0 0 22 0 0 0 0 20 
		78 0 0 0 0 0 0 0 0 0 34 0 0 0 0 0 0 0 0 0 0 0 0 0 0 0 0 0 0 0 0 0 0 0 0 0 0 0 0 32 36 35 0 0 0 0 0 0 0 0 0 0 0 0 30 0 0 0 24 0 0 0 0 0 0 32 0 0 0 0 0 0 0 29 0 0 0 0 0 0 0 0 0 0 33 0 0 0 0 0 0 28 0 0 0 
		79 0 0 23 0 0 0 0 0 0 0 0 40 0 0 0 0 0 0 0 0 0 0 22 0 32 0 0 0 0 39 0 40 0 0 0 0 20 0 0 0 0 0 0 0 0 0 29 0 0 0 0 0 0 0 0 0 0 0 0 0 0 0 0 0 0 0 0 0 0 0 40 0 0 0 0 0 0 22 0 0 0 29 0 0 0 0 0 0 0 0 0 0 0 0 
		80 0 34 0 30 0 0 36 0 0 0 0 0 0 0 0 0 24 0 0 30 0 0 0 0 0 0 0 0 0 39 0 0 0 20 0 0 0 0 0 0 0 22 26 26 0 0 26 0 0 0 31 0 0 35 0 0 33 0 0 0 30 26 0 0 0 0 0 0 0 0 0 0 40 0 0 0 0 0 0 0 0 0 30 21 0 0 0 24 0 0 0 0 0 32 
		81 0 20 0 0 24 0 0 0 24 22 0 0 0 0 0 38 27 0 0 0 0 0 0 0 0 0 26 0 0 0 0 0 0 0 0 32 0 0 0 0 37 0 25 0 35 0 33 0 0 0 0 0 35 31 0 0 0 0 0 0 0 0 0 0 0 31 35 0 0 0 0 0 0 0 0 0 36 0 0 29 0 0 0 0 0 0 0 0 0 38 22 0 0 0 
		82 0 0 0 0 0 0 0 0 0 0 0 0 0 0 22 0 0 0 37 0 38 0 0 30 0 0 0 0 0 31 33 0 0 0 0 0 34 0 0 0 0 0 0 0 0 0 38 0 0 0 0 0 29 0 0 0 0 0 0 0 0 0 0 0 0 0 0 0 0 0 0 0 31 0 0 0 0 0 0 0 30 0 0 0 0 0 0 0 28 0 0 27 0 0 
		83 0 0 0 0 0 0 0 0 0 0 0 0 0 0 0 0 0 0 0 0 0 0 0 0 0 0 0 0 0 0 0 0 39 0 0 0 0 0 0 0 0 0 31 30 0 0 0 24 0 0 0 0 0 30 0 0 25 0 0 0 35 0 0 0 0 0 0 0 0 0 0 0 0 0 0 0 0 0 33 0 21 0 0 0 0 0 0 0 0 0 0 0 0 0 
		84 0 0 0 0 0 20 0 0 0 0 0 0 0 0 0 0 0 0 0 0 0 0 0 0 0 0 0 0 0 0 29 0 0 0 0 0 0 0 0 0 0 0 0 0 33 31 0 0 0 24 0 0 23 0 0 0 0 0 0 0 0 0 0 0 0 0 0 0 0 0 0 0 0 0 0 0 0 0 0 0 0 0 0 0 0 0 0 0 0 27 0 0 32 0 
		85 0 0 0 0 0 0 0 0 0 0 0 0 0 0 0 0 0 0 0 0 0 0 0 25 0 0 0 30 0 0 0 0 0 0 0 0 0 33 0 0 0 0 0 0 0 0 0 0 0 0 0 0 0 0 36 0 0 0 0 23 0 0 0 0 0 36 0 0 0 0 0 0 0 0 0 40 0 0 0 0 0 0 0 0 0 0 0 0 0 34 0 0 0 0 
		86 0 0 0 0 0 38 0 33 0 0 0 0 0 0 0 0 0 0 0 0 0 34 0 0 0 0 0 0 0 31 0 0 0 0 0 0 0 0 31 0 0 0 0 0 0 0 0 0 0 0 0 0 33 22 0 0 30 0 0 0 0 0 0 0 0 0 0 0 23 0 0 0 0 0 0 0 0 0 0 0 0 0 0 0 0 0 0 0 0 37 0 0 0 37 
		87 0 0 0 27 0 0 0 0 0 40 0 0 40 0 0 0 0 0 0 0 0 0 0 0 22 0 0 0 0 39 0 0 0 0 0 0 0 0 0 0 20 0 0 32 34 0 26 0 0 0 32 0 0 0 0 29 0 29 0 0 0 0 0 0 0 0 0 0 0 0 0 23 0 0 0 0 0 0 0 0 24 0 0 0 0 0 0 0 0 0 0 32 0 0 
		88 0 0 0 0 0 0 0 0 0 0 0 0 0 0 0 35 37 35 0 0 0 0 0 0 0 40 0 0 0 0 0 0 0 0 0 0 0 0 0 0 0 0 0 0 0 0 0 0 0 0 0 0 0 0 22 33 0 0 0 0 32 0 0 0 0 0 0 0 0 0 0 0 38 0 0 0 0 22 0 0 0 0 28 0 0 0 0 0 0 0 0 0 0 0 
		89 0 0 0 0 25 39 34 0 0 0 20 0 0 0 0 0 33 0 0 29 0 0 0 0 32 0 30 0 0 0 0 0 0 0 0 0 0 35 0 22 0 0 26 0 0 40 0 0 0 0 0 0 0 0 0 0 0 0 0 0 28 0 38 0 0 27 0 0 0 0 38 35 27 0 0 0 32 0 0 0 0 38 0 0 27 34 37 0 0 0 0 24 0 36 
		90 0 0 0 0 0 36 32 23 0 0 0 0 0 0 0 0 0 0 0 0 0 0 0 0 0 0 32 0 0 0 0 0 0 0 0 0 0 0 0 0 0 0 0 36 34 0 0 0 0 0 0 0 0 0 28 0 0 0 0 0 0 35 0 39 40 23 0 0 0 0 0 0 0 0 0 0 0 0 28 0 0 22 0 0 0 0 0 0 0 0 0 0 0 30 
		91 0 0 22 28 0 0 0 0 0 0 0 0 0 0 29 0 0 33 0 0 0 0 0 0 0 22 0 0 0 0 0 0 36 0 0 0 0 0 0 0 26 0 0 0 0 0 0 0 0 0 0 0 0 0 0 0 0 0 0 0 0 0 0 0 0 0 0 0 0 0 0 0 0 34 0 0 0 0 0 0 0 0 27 0 0 0 0 32 0 24 0 0 0 0 
		92 0 0 0 0 0 0 0 0 0 0 0 0 0 33 0 37 0 0 30 0 37 40 0 0 0 0 0 0 36 24 0 21 0 0 0 0 0 0 33 0 0 0 34 0 0 28 0 30 37 0 0 0 0 0 29 30 0 0 0 0 0 0 25 0 0 0 0 0 21 0 0 0 0 0 0 0 0 0 0 0 0 0 0 0 32 0 0 0 0 0 0 0 0 0 
		93 0 0 0 0 27 30 0 0 0 0 0 0 0 0 0 0 0 0 0 0 0 0 0 0 0 0 0 0 0 0 39 0 35 0 0 0 0 0 35 0 20 0 40 0 0 0 38 0 0 29 0 0 0 0 0 0 0 0 0 0 0 0 0 0 0 0 0 0 0 20 0 0 0 0 0 27 0 20 0 0 32 0 0 0 0 0 37 0 0 36 30 0 0 0 
;
